(declare-fun c_ack!84 () (_ BitVec 64))
(declare-fun a_ack!85 () (_ BitVec 32))
(declare-fun b_ack!83 () (_ BitVec 32))
(declare-fun FPCHECK_FMUL_ACCURACY
             ((_ FloatingPoint 11 53) (_ FloatingPoint 11 53))
             Bool)
(assert (not (fp.gt (fp.abs ((_ to_fp 11 53) c_ack!84))
            ((_ to_fp 11 53) #x40862642fefa39ef))))
(assert (not (bvslt b_ack!83 a_ack!85)))
(assert (not (bvslt a_ack!85 #x00000000)))
(assert (not (fp.eq ((_ to_fp 11 53) c_ack!84) ((_ to_fp 11 53) #x0000000000000000))))
(assert (not (= #x00000000 b_ack!83)))
(assert (not (fp.eq (fp.abs ((_ to_fp 11 53) c_ack!84))
            ((_ to_fp 11 53) #x0000000000000000))))
(assert (FPCHECK_FMUL_ACCURACY
  (fp.abs ((_ to_fp 11 53) c_ack!84))
  (fp.abs ((_ to_fp 11 53) c_ack!84))))

(check-sat)
(exit)
